DATASET = "thpack5";
INSTANCE = "008";

WIDTH = 233;
HEIGHT = 220;
LENGTH = 587;

NO_OF_SHAPES = 12;
size = [|
  75,58,57 |
  57,37,30 |
  79,74,35 |
  104,99,74 |
  55,46,31 |
  99,98,33 |
  90,85,59 |
  115,74,44 |
  107,67,21 |
  81,76,55 |
  118,84,27 |
  67,60,38 |
|];

verticality = [|
  1,1,1 |
  1,1,1 |
  0,0,1 |
  1,1,1 |
  1,1,1 |
  0,0,1 |
  1,1,1 |
  0,1,1 |
  0,0,1 |
  1,1,1 |
  0,0,1 |
  1,1,1 |
|];

box_count = [
  5,
  7,
  11,
  9,
  6,
  8,
  13,
  9,
  4,
  5,
  11,
  10,
];
